(set-info :origin "driver benchmark extracted from Microsoft SDV")
(set-logic HORN)
(declare-fun Proc31 (Int Int Int Int Bool Int Int Int Int Bool Int) Bool)
(declare-fun Proc41 (Int Int Int Int Bool Int) Bool)
(declare-fun Proc40 (Int Int Int Int Bool Int) Bool)
(declare-fun Proc14 (Int Int Int Int Bool Int Int Int Int Int Int) Bool)
(declare-fun Proc25 (Int Int Int Int Bool Int Int Int) Bool)
(declare-fun Proc24 (Int Int Int Int Bool Int Int) Bool)
(declare-fun Proc5 (Int Int Int Int Bool Int Int) Bool)
(declare-fun Proc17 (Int Int Int Int Bool Int Int Int) Bool)
(declare-fun Proc53 (Int Int Int Int Bool Int Int Int) Bool)
(declare-fun Proc27 (Int Int Int Int Bool Int) Bool)
(declare-fun Proc15 (Int Int Int Int Bool Int Int Int Int) Bool)
(declare-fun Proc33 (Int Int Int Int Bool Int) Bool)
(declare-fun Proc11 (Int Int Int Int Bool Int) Bool)
(declare-fun Proc18 (Int Int Int Int Bool Int Int Int) Bool)
(declare-fun Proc36 (Int Int Int Int Bool Int) Bool)
(declare-fun Proc42 (Int Int Int Int Bool Int) Bool)
(declare-fun Proc26 (Int Int Int Int Bool) Bool)
(declare-fun Proc45 (Int Int Int Int Bool Int Int) Bool)
(declare-fun Proc48 (Int Int Int Int Bool Int Int) Bool)
(declare-fun Proc49 (Int Int Int Int Bool Int) Bool)
(declare-fun Proc38 (Int Int Int Int Bool Int) Bool)
(declare-fun Proc29 (Int Int Int Int Bool Int) Bool)
(declare-fun Proc47 (Int Int Int Int Bool Int) Bool)
(declare-fun Proc54 (Int Int Int Int Bool) Bool)
(declare-fun Proc20 (Int Int Int Int Bool Int Int Int Int) Bool)
(declare-fun Proc10 (Int Int Int Int Bool Int) Bool)
(declare-fun Proc52 (Int Int Int Int Bool Int) Bool)
(declare-fun Proc34 (Int Int Int Int Bool Int) Bool)
(declare-fun Proc32 (Int Int Int Int Bool Int) Bool)
(declare-fun Proc12 (Int Int Int Int Bool Int Int Int Int Int Int) Bool)
(declare-fun Proc51 (Int Int Int Int Bool Int) Bool)
(declare-fun Proc22 (Int Int Int Int Bool Int Int) Bool)
(declare-fun Proc23 (Int Int Int Int Bool Int Int Int) Bool)
(declare-fun Proc9 (Int Int Int Int Bool Int) Bool)
(declare-fun Proc35 (Int Int Int Int Bool Int) Bool)
(declare-fun Proc19 (Int Int Int Int Bool Int Int Int Int) Bool)
(declare-fun Proc2 (Int Int Int Int Bool) Bool)
(declare-fun Proc43 (Int Int Int Int Bool Int) Bool)
(declare-fun Proc46 (Int Int Int Int Bool Int) Bool)
(declare-fun Proc0 (Int Int Int Int Bool Int) Bool)
(declare-fun Proc28 (Int Int Int Int Bool Int Int) Bool)
(declare-fun Proc16 (Int Int Int Int Bool Int) Bool)
(declare-fun Proc50 (Int Int Int Int Bool Int Int Int Int Int Int Int) Bool)
(declare-fun Proc37 (Int Int Int Int Bool Int) Bool)
(declare-fun Proc1 (Int Int Int Int Bool Int Int Int Int) Bool)
(declare-fun Proc3 (Int Int Int Int Bool Int Int) Bool)
(declare-fun Proc44 (Int Int Int Int Bool Int) Bool)
(declare-fun Proc8 (Int Int Int Int Bool Int Int) Bool)
(declare-fun Proc13 (Int Int Int Int Bool Int Int Int Int) Bool)
(declare-fun Proc7 (Int Int Int Int Bool Int Int Int) Bool)
(declare-fun Proc21 (Int Int Int Int Bool Int Int Int) Bool)
(declare-fun Proc6 (Int Int Int Int Bool Int) Bool)
(declare-fun Proc30 (Int Int Int Int Bool Int Int Int Int) Bool)
(declare-fun Proc4 (Int Int Int Int Bool Int Int Int) Bool)
(declare-fun Proc39 (Int Int Int Int Bool Int) Bool)
(declare-fun Proc55 (Int Int Int Int Bool Int Bool Int Int Int Int) Bool)
(assert (forall ((A Int)
         (B Int)
         (C Int)
         (D Int)
         (E Int)
         (F Int)
         (G Int)
         (H Int)
         (I Int)
         (J Bool))
  (let ((a!1 (and (or (= I 0) (not (= B 0))) (not (= B 0)))))
  (let ((a!2 (and (or (not (Proc0 G F E D J H)) (= C 0) a!1) (or (= C 0) a!1))))
    (=> (not (or (not J) (= I 0) (= H 0) a!2)) (Proc1 G F E D J I H A B))))))
(assert (forall ((A Int)
         (B Int)
         (C Int)
         (D Int)
         (E Int)
         (F Int)
         (G Int)
         (H Int)
         (I Int)
         (J Bool)
         (K Int)
         (L Int)
         (M Int)
         (N Int)
         (O Int)
         (P Int)
         (Q Int)
         (R Int)
         (S Int)
         (T Int)
         (U Int)
         (V Int)
         (W Int)
         (X Int)
         (Y Int)
         (Z Int)
         (A1 Int)
         (B1 Int)
         (C1 Int)
         (D1 Int)
         (E1 Int))
  (let ((a!1 (and (not (<= C1 (+ 112 E1))) (not (<= C1 D1))))
        (a!2 (not (and (not (= V 0)) (= U (+ 20 V)) (Proc4 C1 B1 A1 Z J U X T))))
        (a!3 (or (<= 0 T)
                 (= X 0)
                 (not (Proc5 C1 B1 A1 Z J X 0))
                 (not (and (= S C1) (= R T)))
                 (not (and (= Q R) (= P S)))))
        (a!4 (not (and (not (= V 0)) (Proc7 C1 B1 A1 Z J O X N))))
        (a!6 (not (and (not (= V 0)) (= M (+ 20 V)) (Proc8 C1 B1 A1 Z J M X))))
        (a!7 (not (and (not (= V 0)) (Proc7 C1 B1 A1 Z J L X K))))
        (a!8 (not (and (not (= V 0)) (Proc9 C1 B1 A1 Z J I))))
        (a!11 (not (Proc12 C1 B1 A1 Z J X 115 0 1 1 1)))
        (a!12 (not (and (not (= V 0)) (Proc7 C1 B1 A1 Z J H X G))))
        (a!21 (not (and (not (= V 0)) (Proc7 F B1 A1 Z J E X D))))
        (a!22 (not (and (not (= D 259)) (= C D))))
        (a!23 (or (<= 0 C)
                  (= X 0)
                  (not (Proc5 F B1 A1 Z J X 0))
                  (not (and (= S F) (= R C)))
                  (not (and (= Q R) (= P S)))))
        (a!24 (or (= X 0)
                  (not (Proc5 F B1 A1 Z J X 0))
                  (not (and (= S F) (= R C)))
                  (not (and (= Q R) (= P S)))))
        (a!25 (or (= Y 0)
                  (= X 0)
                  (not (Proc5 F B1 A1 Z J X 0))
                  (not (and (= S F) (= R C)))
                  (not (and (= Q R) (= P S)))))
        (a!27 (not (and (not (= X 0)) (= C A)))))
  (let ((a!5 (or (= V 0)
                 (= X 0)
                 (not (Proc6 C1 B1 A1 Z J X))
                 a!4
                 (not (and (= S C1) (= R N)))
                 (not (and (= Q R) (= P S)))))
        (a!9 (or a!6
                 (not (Proc6 C1 B1 A1 Z J X))
                 (= V 0)
                 a!7
                 a!8
                 (not (Proc10 C1 B1 A1 Z J Y))
                 (not (and (= S C1) (= R K)))
                 (not (and (= Q R) (= P S)))))
        (a!10 (or (= X 0)
                  (not (Proc6 C1 B1 A1 Z J X))
                  (= V 0)
                  a!4
                  (not (and (= S C1) (= R N)))
                  (not (and (= Q R) (= P S)))))
        (a!13 (or (= Y 0)
                  (not (Proc11 C1 B1 A1 Z J X))
                  a!11
                  (= V 0)
                  a!12
                  (not (and (= S C1) (= R G)))
                  (not (and (= Q R) (= P S)))))
        (a!14 (or (not (Proc11 C1 B1 A1 Z J X))
                  a!11
                  (= V 0)
                  a!12
                  (not (and (= S C1) (= R G)))
                  (not (and (= Q R) (= P S)))))
        (a!26 (and a!23 (or (not (<= 0 C)) (= V 0) (and a!24 a!25)))))
  (let ((a!15 (or (= Y 0) (and (or (= Y 0) (and a!13 a!14)) a!13)))
        (a!28 (and (or a!22 a!26)
                   (or (not (= D 259))
                       (not (Proc14 F B1 A1 Z J E1 0 0 0 0 B))
                       a!27
                       a!26))))
  (let ((a!16 (or (= W 0) (and a!15 (or (= W 0) (and a!10 a!5))))))
  (let ((a!17 (or (= W 0) (and (or (= V 0) (and a!10 a!5)) a!16))))
  (let ((a!18 (or (= W 0) (and a!5 (or (= W 0) (and a!5 a!17))))))
  (let ((a!19 (or (= W 0) (and (or (= V 0) (and a!10 a!5)) a!18))))
  (let ((a!20 (or (= W 0) (and a!5 (or (= W 0) (and a!9 a!19))))))
  (let ((a!29 (and a!20
                   (or (not (Proc13 C1 B1 A1 Z J E1 0 0 F))
                       (not (Proc11 F B1 A1 Z J X))
                       (not (Proc12 F B1 A1 Z J X 116 E1 1 1 1))
                       (= V 0)
                       a!21
                       a!28))))
  (let ((a!30 (and a!3 (or (not (<= 0 T)) (= W 0) a!29))))
  (let ((a!31 (not (or (not J)
                       (not (= E1 D1))
                       (not a!1)
                       (not (Proc2 C1 B1 A1 Z J))
                       (= Y 0)
                       (not (Proc3 C1 B1 A1 Z J X W))
                       a!2
                       a!30))))
    (=> a!31 (Proc15 D1 B1 A1 Z J Y X Q P)))))))))))))))
(assert (forall ((A Int)
         (B Int)
         (C Int)
         (D Int)
         (E Int)
         (F Int)
         (G Int)
         (H Int)
         (I Int)
         (J Bool)
         (K Int)
         (L Int)
         (M Int)
         (N Int))
  (let ((a!1 (not (and (not (= M 0)) (= L (+ 20 M)) (Proc4 K I H G J L F E))))
        (a!2 (not (and (not (= M 0)) (Proc17 K I H G J B F A)))))
  (let ((a!3 (and (or (<= 0 E)
                      (= F 0)
                      (not (Proc16 K I H G J F))
                      (not (Proc5 K I H G J F 0))
                      (not (= D E))
                      (not (= C D)))
                  (or (not (<= 0 E))
                      (not (Proc16 K I H G J F))
                      (not (Proc6 K I H G J F))
                      (= M 0)
                      a!2
                      (not (= D A))
                      (not (= C D))))))
    (=> (not (or (not J) (= N 0) a!1 a!3)) (Proc18 K I H G J N F C))))))
(assert (forall ((A Int)
         (B Int)
         (C Int)
         (D Int)
         (E Int)
         (F Int)
         (G Int)
         (H Int)
         (I Int)
         (J Bool)
         (K Int))
  (let ((a!1 (or (not (= I (- 1073741802))) (not (= H I))))
        (a!2 (or (not (Proc19 G F E D J C 0 0 B))
                 (not (= I (- 1073741802)))
                 (not (= H I)))))
    (=> (not (or (not J) (= K 0) (and a!1 a!2))) (Proc20 G F E D J A K C H)))))
(assert (forall ((A Int) (B Int) (C Int) (D Int) (E Int) (J Bool))
  (=> J (Proc10 E D C B J A))))
(assert (forall ((A Int) (B Int) (C Int) (D Int) (E Int) (J Bool))
  (=> J (Proc9 E D C B J A))))
(assert (forall ((A Int) (B Int) (C Int) (D Int) (E Int) (F Int) (G Int) (J Bool))
  (let ((a!1 (not (or (not J) (= G 0) (not (= F 259))))))
    (=> a!1 (Proc21 E D C B J A G F)))))
(assert (forall ((A Int)
         (B Int)
         (C Int)
         (D Int)
         (E Int)
         (F Int)
         (G Int)
         (H Int)
         (I Int)
         (J Bool)
         (K Int))
  (let ((a!1 (and (not (<= H (+ 1 K))) (not (<= H I)))))
  (let ((a!2 (not (or (not J) (not (= K I)) (not a!1) (not (= G H))))))
    (=> a!2 (Proc13 I F E D J C B A G))))))
(assert (forall ((A Int)
         (B Int)
         (C Int)
         (D Int)
         (E Int)
         (F Int)
         (G Int)
         (H Int)
         (I Int)
         (J Bool))
  (let ((a!1 (not (or (not J) (not (= I H))))))
    (=> a!1 (Proc19 G F E D J C B A I)))))
(assert (forall ((A Int)
         (B Int)
         (C Int)
         (D Int)
         (E Int)
         (F Int)
         (G Int)
         (H Int)
         (I Int)
         (J Bool)
         (K Int)
         (L Int)
         (M Int))
  (let ((a!1 (not (and (= M (- 1073741823)) (= L M)))))
  (let ((a!2 (and (or a!1 (not (= K L))) (or (not (= L 0)) (not (= K L))))))
    (=> (not (or (not J) a!2)) (Proc14 I H G F J E D C B A K))))))
(assert (forall ((A Int) (B Int) (C Int) (D Int) (E Int) (F Int) (G Int) (J Bool))
  (let ((a!1 (not (or (not J) (= G 0) (not (= F 259))))))
    (=> a!1 (Proc17 E D C B J A G F)))))
(assert (forall ((A Int) (B Int) (C Int) (D Int) (E Int) (J Bool))
  (=> J (Proc16 E D C B J A))))
(assert (forall ((A Int)
         (B Int)
         (C Int)
         (D Int)
         (E Int)
         (F Int)
         (G Int)
         (H Int)
         (I Int)
         (J Bool)
         (K Int))
  (let ((a!1 (and (not (<= H (+ 1 K))) (not (<= H I)))))
  (let ((a!2 (or (not J)
                 (not (= K I))
                 (not a!1)
                 (not (Proc22 H G F E J K D))
                 (not (and (= C H) (= B D))))))
    (=> (not a!2) (Proc23 I G F E J A C B))))))
(assert (forall ((A Int) (B Int) (C Int) (D Int) (E Int) (F Int) (J Bool))
  (let ((a!1 (not (or (not J) (not (= F 1))))))
    (=> a!1 (Proc22 E D C B J A F)))))
(assert (forall ((A Int) (B Int) (C Int) (D Int) (E Int) (F Int) (J Bool))
  (let ((a!1 (not (or (not J) (not (= F E))))))
    (=> a!1 (Proc24 D E C B J A F)))))
(assert (forall ((A Int)
         (B Int)
         (C Int)
         (D Int)
         (E Int)
         (F Int)
         (G Int)
         (H Int)
         (I Int)
         (J Bool)
         (K Int)
         (L Int))
  (let ((a!1 (or (not (= L K))
                 (not (and (= I H) (= G F)))
                 (not (and (= E G) (= D I)))))
        (a!2 (or (not (= A 1))
                 (not (and (= I A) (= G B)))
                 (not (and (= E G) (= D I)))))
        (a!3 (or (= A 1)
                 (not (and (= I A) (= G B)))
                 (not (and (= E G) (= D I))))))
  (let ((a!4 (and a!1 (or (= L K) (not (Proc23 F K L H J C B A)) (and a!2 a!3)))))
    (=> (not (or (not J) a!4)) (Proc25 F K L H J C E D))))))
(assert (forall ((A Int) (B Int) (C Int) (D Int) (J Bool)) (=> J (Proc26 D C B A J))))
(assert (forall ((A Int) (B Int) (C Int) (D Int) (E Int) (J Bool))
  (let ((a!1 (not (or (not J) (not (= E 0))))))
    (=> a!1 (Proc27 D C B A J E)))))
(assert (forall ((A Int) (B Int) (C Int) (D Int) (E Int) (F Int) (J Bool))
  (let ((a!1 (or (not J) (not (and (= F 0) (= E 0))))))
    (=> (not a!1) (Proc28 D C B A J F E)))))
(assert (forall ((A Int)
         (B Int)
         (C Int)
         (D Int)
         (E Int)
         (F Int)
         (G Int)
         (H Int)
         (I Int)
         (J Bool)
         (K Int)
         (L Int)
         (M Int)
         (N Int)
         (O Int)
         (P Int)
         (Q Int)
         (R Int)
         (S Int)
         (T Int)
         (U Int)
         (F1 Bool)
         (G1 Bool)
         (H1 Bool))
  (let ((a!1 (not (and (not (<= U 0)) (Proc29 U T S R H1 Q))))
        (a!2 (not (and (= F H) (= E L) (= D I) (= C K) (= F1 G1) (= B M)))))
  (let ((a!3 (or (= I 0) (not (and (= H G) (not G1))) a!2))
        (a!4 (or (not (and (= I 0) (= J H1))) (not (and (= H A) (= G1 J))) a!2)))
  (let ((a!5 (and (or (= I 1) (and a!3 a!4)) (or (not (= I 1)) (and a!3 a!4)))))
  (let ((a!6 (not (or (not H1)
                      a!1
                      (not (Proc28 Q T S R H1 P O))
                      (not (Proc27 Q T P O H1 N))
                      (not (Proc26 Q N P O H1))
                      (not (Proc30 Q N P O H1 M L K I))
                      a!5))))
    (=> a!6 (Proc31 U T S R H1 F E D C F1 B))))))))
(assert (forall ((A Int) (B Int) (C Int) (D Int) (E Int) (J Bool))
  (let ((a!1 (not (or (not J) (not (= E 1))))))
    (=> a!1 (Proc32 D C B A J E)))))
(assert (forall ((A Int) (B Int) (C Int) (D Int) (E Int) (J Bool))
  (let ((a!1 (not (or (not J) (not (= E 0))))))
    (=> a!1 (Proc33 D C B A J E)))))
(assert (forall ((A Int) (B Int) (C Int) (D Int) (E Int) (J Bool))
  (let ((a!1 (not (or (not J) (not (= E 1))))))
    (=> a!1 (Proc34 D C B A J E)))))
(assert (forall ((A Int) (B Int) (C Int) (D Int) (E Int) (J Bool))
  (let ((a!1 (not (or (not J) (not (= E 0))))))
    (=> a!1 (Proc35 D C B A J E)))))
(assert (forall ((A Int) (B Int) (C Int) (D Int) (E Int) (J Bool))
  (let ((a!1 (not (or (not J) (not (= E 1))))))
    (=> a!1 (Proc36 D C B A J E)))))
(assert (forall ((A Int) (B Int) (C Int) (D Int) (E Int) (J Bool))
  (let ((a!1 (not (or (not J) (not (= E 0))))))
    (=> a!1 (Proc37 D C B A J E)))))
(assert (forall ((A Int) (B Int) (C Int) (D Int) (E Int) (J Bool))
  (let ((a!1 (not (or (not J) (not (= E 1))))))
    (=> a!1 (Proc38 D C B A J E)))))
(assert (forall ((A Int) (B Int) (C Int) (D Int) (E Int) (J Bool))
  (let ((a!1 (not (or (not J) (not (= E 1))))))
    (=> a!1 (Proc39 D C B A J E)))))
(assert (forall ((A Int) (B Int) (C Int) (D Int) (E Int) (J Bool))
  (let ((a!1 (not (or (not J) (not (= E 0))))))
    (=> a!1 (Proc40 D C B A J E)))))
(assert (forall ((A Int) (B Int) (C Int) (D Int) (E Int) (J Bool))
  (let ((a!1 (not (or (not J) (not (= E 0))))))
    (=> a!1 (Proc41 D C B A J E)))))
(assert (forall ((A Int) (B Int) (C Int) (D Int) (E Int) (J Bool))
  (let ((a!1 (not (or (not J) (not (= E 0))))))
    (=> a!1 (Proc42 D C B A J E)))))
(assert (forall ((A Int) (B Int) (C Int) (D Int) (E Int) (F Int) (J Bool))
  (let ((a!1 (or (not J) (not (= F (- 1073741823))) (not (= E F)))))
    (=> (not a!1) (Proc43 D C B A J E)))))
(assert (forall ((A Int)
         (B Int)
         (C Int)
         (D Int)
         (E Int)
         (F Int)
         (G Int)
         (H Int)
         (I Int)
         (J Bool)
         (K Int))
  (let ((a!1 (not (and (= K (- 1073741738)) (= I K))))
        (a!2 (not (and (= G (- 1073741823)) (= I G)))))
  (let ((a!3 (and (or a!1 (not (= H I)))
                  (or (not (= I 0)) (not (= H I)))
                  (or a!2 (not (= H I))))))
    (=> (not (or (not J) a!3)) (Proc4 F E D C J B A H))))))
(assert (forall ((A Int)
         (B Int)
         (C Int)
         (D Int)
         (E Int)
         (F Int)
         (G Int)
         (H Int)
         (J Bool))
  (let ((a!1 (not (or (not J) (not (Proc21 H G F E J D C B)) (not (= A B))))))
    (=> a!1 (Proc7 H G F E J D C A)))))
(assert (forall ((A Int) (B Int) (C Int) (D Int) (E Int) (F Int) (J Bool))
  (=> J (Proc5 F E D C J B A))))
(assert (forall ((A Int) (B Int) (C Int) (D Int) (E Int) (J Bool))
  (let ((a!1 (not (or (not J) (not (= E 1))))))
    (=> a!1 (Proc44 D C B A J E)))))
(assert (forall ((A Int) (B Int) (C Int) (D Int) (E Int) (J Bool))
  (=> J (Proc11 E D C B J A))))
(assert (forall ((A Int) (B Int) (C Int) (D Int) (E Int) (F Int) (G Int) (J Bool))
  (let ((a!1 (not (or (not J) (= G 0) (not (= F E))))))
    (=> a!1 (Proc3 D C B A J G F)))))
(assert (forall ((A Int)
         (B Int)
         (C Int)
         (D Int)
         (E Int)
         (F Int)
         (G Int)
         (H Int)
         (I Int)
         (J Bool)
         (K Int))
  (let ((a!1 (and (or (not (= K I)) (not (= H K)))
                  (or (not (= K G)) (not (= H K)))
                  (or (not (= K F)) (not (= H K))))))
    (=> (not (or (not J) a!1)) (Proc45 E D C B J A H)))))
(assert (forall ((A Int) (B Int) (C Int) (D Int) (E Int) (J Bool))
  (=> J (Proc0 E D C B J A))))
(assert (forall ((A Int) (B Int) (C Int) (D Int) (E Int) (F Int) (J Bool))
  (=> J (Proc8 F E D C J B A))))
(assert (forall ((A Int)
         (B Int)
         (C Int)
         (D Int)
         (E Int)
         (F Int)
         (G Int)
         (H Int)
         (I Int)
         (J Bool)
         (K Int)
         (L Int))
  (let ((a!1 (not (or (not J) (not (Proc45 L K I H J G F)) (= F 0)))))
    (=> a!1 (Proc12 L K I H J G E D C B A)))))
(assert (forall ((A Int) (B Int) (C Int) (D Int) (E Int) (J Bool))
  (=> J (Proc6 E D C B J A))))
(assert (forall ((A Int)
         (B Int)
         (C Int)
         (D Int)
         (E Int)
         (F Int)
         (G Int)
         (H Int)
         (I Int)
         (J Bool)
         (K Int)
         (L Int)
         (M Int)
         (N Int)
         (O Int)
         (P Int)
         (Q Int)
         (R Int)
         (S Int)
         (T Int)
         (U Int)
         (V Int)
         (W Int)
         (X Int)
         (Y Int)
         (Z Int)
         (A1 Int)
         (B1 Int)
         (C1 Int)
         (D1 Int)
         (E1 Int)
         (I1 Int)
         (J1 Int)
         (K1 Int)
         (L1 Int)
         (M1 Int)
         (N1 Int)
         (O1 Int)
         (P1 Int)
         (Q1 Int)
         (R1 Int)
         (S1 Int)
         (T1 Int))
  (let ((a!1 (and (not (<= R1 (+ 1 T1))) (not (<= R1 S1))))
        (a!2 (and (not (<= C1 (+ 1 D1))) (not (<= C1 I1))))
        (a!3 (not (Proc25 C1 K1 N1 O1 J D1 B1 A1)))
        (a!4 (not (and (= Z E1) (= Y B1) (= X N1) (= W K1) (= V A1))))
        (a!22 (not (Proc15 R1 K1 N1 O1 J H M1 D C))))
  (let ((a!5 (and (or (not (= A1 1)) a!4) (or (= A1 1) a!4))))
  (let ((a!6 (or (= L1 0)
                 (not (Proc43 R1 K1 N1 O1 J J1))
                 (not (and (= I1 R1) (= E1 J1)))
                 (not (Proc48 I1 K1 N1 O1 J E1 M1))
                 (= M1 0)
                 (not (= D1 I1))
                 (not a!2)
                 a!3
                 a!5))
        (a!7 (or (= L1 0)
                 (not (Proc43 R1 K1 N1 O1 J U))
                 (not (and (= I1 R1) (= E1 U)))
                 (not (Proc48 I1 K1 N1 O1 J E1 M1))
                 (= M1 0)
                 (not (= D1 I1))
                 (not a!2)
                 a!3
                 a!5))
        (a!8 (or (= L1 0)
                 (not (Proc43 R1 K1 N1 O1 J T))
                 (not (and (= I1 R1) (= E1 T)))
                 (not (Proc48 I1 K1 N1 O1 J E1 M1))
                 (= M1 0)
                 (not (= D1 I1))
                 (not a!2)
                 a!3
                 a!5))
        (a!9 (or (= L1 0)
                 (not (Proc43 R1 K1 N1 O1 J S))
                 (not (and (= I1 R1) (= E1 S)))
                 (not (Proc48 I1 K1 N1 O1 J E1 M1))
                 (= M1 0)
                 (not (= D1 I1))
                 (not a!2)
                 a!3
                 a!5))
        (a!10 (or (= L1 0)
                  (not (Proc43 R1 K1 N1 O1 J R))
                  (not (and (= I1 R1) (= E1 R)))
                  (not (Proc48 I1 K1 N1 O1 J E1 M1))
                  (= M1 0)
                  (not (= D1 I1))
                  (not a!2)
                  a!3
                  a!5))
        (a!11 (or (= L1 0)
                  (not (Proc43 R1 K1 N1 O1 J Q))
                  (not (and (= I1 R1) (= E1 Q)))
                  (not (Proc48 I1 K1 N1 O1 J E1 M1))
                  (= M1 0)
                  (not (= D1 I1))
                  (not a!2)
                  a!3
                  a!5))
        (a!12 (or (= L1 0)
                  (not (Proc43 R1 K1 N1 O1 J P))
                  (not (and (= I1 R1) (= E1 P)))
                  (not (Proc48 I1 K1 N1 O1 J E1 M1))
                  (= M1 0)
                  (not (= D1 I1))
                  (not a!2)
                  a!3
                  a!5))
        (a!13 (or (not (Proc43 R1 K1 N1 O1 J O))
                  (not (and (= I1 R1) (= E1 O)))
                  (not (Proc48 I1 K1 N1 O1 J E1 M1))
                  (= M1 0)
                  (not (= D1 I1))
                  (not a!2)
                  a!3
                  a!5))
        (a!14 (or (= L1 0)
                  (not (Proc43 R1 K1 N1 O1 J N))
                  (not (and (= I1 R1) (= E1 N)))
                  (not (Proc48 I1 K1 N1 O1 J E1 M1))
                  (= M1 0)
                  (not (= D1 I1))
                  (not a!2)
                  a!3
                  a!5))
        (a!15 (or (= L1 0)
                  (not (Proc43 R1 K1 N1 O1 J M))
                  (not (and (= I1 R1) (= E1 M)))
                  (not (Proc48 I1 K1 N1 O1 J E1 M1))
                  (= M1 0)
                  (not (= D1 I1))
                  (not a!2)
                  a!3
                  a!5))
        (a!16 (or (= L1 0)
                  (not (Proc43 R1 K1 N1 O1 J L))
                  (not (and (= I1 R1) (= E1 L)))
                  (not (Proc48 I1 K1 N1 O1 J E1 M1))
                  (= M1 0)
                  (not (= D1 I1))
                  (not a!2)
                  a!3
                  a!5))
        (a!17 (or (not (Proc43 R1 K1 N1 O1 J K))
                  (not (and (= I1 R1) (= E1 K)))
                  (not (Proc48 I1 K1 N1 O1 J E1 M1))
                  (= M1 0)
                  (not (= D1 I1))
                  (not a!2)
                  a!3
                  a!5))
        (a!18 (or (= L1 0)
                  (not (Proc43 R1 K1 N1 O1 J I))
                  (not (and (= I1 R1) (= E1 I)))
                  (not (Proc48 I1 K1 N1 O1 J E1 M1))
                  (= M1 0)
                  (not (= D1 I1))
                  (not a!2)
                  a!3
                  a!5))
        (a!19 (or (= L1 0)
                  (not (Proc49 R1 K1 N1 O1 J M1))
                  (not (Proc18 R1 K1 N1 O1 J H M1 G))
                  (not (and (= I1 R1) (= E1 G)))
                  (not (Proc48 I1 K1 N1 O1 J E1 M1))
                  (= M1 0)
                  (not (= D1 I1))
                  (not a!2)
                  a!3
                  a!5))
        (a!20 (or (= L1 0)
                  (not (Proc43 R1 K1 N1 O1 J F))
                  (not (and (= I1 R1) (= E1 F)))
                  (not (Proc48 I1 K1 N1 O1 J E1 M1))
                  (= M1 0)
                  (not (= D1 I1))
                  (not a!2)
                  a!3
                  a!5))
        (a!21 (or (not (Proc43 R1 K1 N1 O1 J E))
                  (not (and (= I1 R1) (= E1 E)))
                  (not (Proc48 I1 K1 N1 O1 J E1 M1))
                  (= M1 0)
                  (not (= D1 I1))
                  (not a!2)
                  a!3
                  a!5))
        (a!23 (or (= L1 0)
                  a!22
                  (not (and (= I1 C) (= E1 D)))
                  (not (Proc48 I1 K1 N1 O1 J E1 M1))
                  (= M1 0)
                  (not (= D1 I1))
                  (not a!2)
                  a!3
                  a!5))
        (a!24 (or (not (= B 1))
                  (= B 0)
                  (= L1 0)
                  a!22
                  (not (and (= I1 C) (= E1 D)))
                  (not (Proc48 I1 K1 N1 O1 J E1 M1))
                  (= M1 0)
                  (not (= D1 I1))
                  (not a!2)
                  a!3
                  a!5)))
  (let ((a!25 (and (or (= L1 0) (and a!23 a!24))
                   (or (not (= A 1)) (= A 0) (= L1 0) (and a!23 a!24)))))
  (let ((a!26 (or (not J)
                  (not (= T1 S1))
                  (not a!1)
                  (not (Proc24 R1 Q1 P1 O1 J T1 N1))
                  (= M1 0)
                  (not (Proc46 R1 Q1 N1 O1 J M1))
                  (= L1 0)
                  (not (Proc47 R1 Q1 N1 O1 J K1))
                  (and a!6
                       a!7
                       a!8
                       a!9
                       a!10
                       a!11
                       a!12
                       a!13
                       a!14
                       a!15
                       a!16
                       a!17
                       a!18
                       a!19
                       a!20
                       a!21
                       (or (= L1 0) a!25)))))
    (=> (not a!26) (Proc50 S1 Q1 P1 O1 J H M1 Z Y X W V)))))))))
(assert (forall ((A Int)
         (B Int)
         (C Int)
         (D Int)
         (E Int)
         (F Int)
         (G Int)
         (H Int)
         (I Int)
         (J Bool)
         (K Int))
  (let ((a!1 (not (or (not J)
                      (not (Proc51 K I H G J F))
                      (not (Proc43 K F H G J E))
                      (not (Proc52 K F H G J D))
                      (not (= C D))))))
    (=> a!1 (Proc53 K I H G J B A C)))))
(assert (forall ((A Int) (B Int) (C Int) (D Int) (E Int) (F Int) (J Bool))
  (=> (not (or (not J) (= F 0) (= E 0))) (Proc49 D C B A J F))))
(assert (forall ((A Int) (B Int) (C Int) (D Int) (E Int) (J Bool))
  (=> (not (or (not J) (= E 0))) (Proc46 D C B A J E))))
(assert (forall ((A Int) (B Int) (C Int) (D Int) (J Bool)) (=> J (Proc2 D C B A J))))
(assert (forall ((A Int)
         (B Int)
         (C Int)
         (D Int)
         (E Int)
         (F Int)
         (G Int)
         (H Int)
         (I Int)
         (J Bool)
         (K Int)
         (L Int)
         (M Int)
         (N Int)
         (O Int)
         (P Int)
         (Q Int)
         (R Int)
         (S Int)
         (T Int)
         (U Int)
         (V Int)
         (W Int)
         (X Int)
         (Y Int)
         (Z Int)
         (A1 Int)
         (B1 Int)
         (C1 Int)
         (D1 Int)
         (E1 Int)
         (I1 Int)
         (J1 Int)
         (K1 Int)
         (L1 Int)
         (M1 Int)
         (N1 Int)
         (O1 Int)
         (P1 Int)
         (Q1 Int)
         (R1 Int)
         (S1 Int)
         (T1 Int)
         (U1 Int)
         (V1 Int))
  (let ((a!1 (not (and (= V X) (= U Y) (= T W) (= S Z))))
        (a!2 (not (and (= R S) (= Q U) (= P V) (= O T))))
        (a!4 (not (and (= V U1) (= U T1) (= T S1) (= S V1)))))
  (let ((a!3 (and (or (not (= W 1)) a!1 a!2) (or (= W 1) a!1 a!2)))
        (a!5 (or (= Q1 0)
                 (not (Proc54 V1 U1 T1 S1 J))
                 (not (Proc53 V1 U1 T1 S1 J N M L))
                 (not (and (= V L) (= U T1) (= T S1) (= S V1)))
                 a!2))
        (a!6 (or (not (Proc1 V1 2 T1 S1 J K I H G))
                 (not (and (= V F) (= U T1) (= T S1) (= S V1)))
                 a!2))
        (a!7 (or (not (Proc20 V1 2 T1 S1 J E D C B))
                 (not (and (= V A) (= U T1) (= T S1) (= S V1)))
                 a!2)))
  (let ((a!8 (and (or (= R1 0)
                      (not (Proc54 V1 U1 T1 S1 J))
                      (not (Proc50 V1 U1 T1 S1 J C1 B1 A1 Z Y X W))
                      a!3)
                  (or (not (= R1 0)) a!4 a!2)
                  a!5
                  (or (not (= Q1 0)) a!4 a!2)
                  (or a!4 a!2)
                  a!6
                  a!7)))
  (let ((a!9 (not (or (not J)
                      (not (Proc34 V1 U1 T1 S1 J R1))
                      (not (Proc41 V1 U1 T1 S1 J Q1))
                      (not (Proc35 V1 U1 T1 S1 J P1))
                      (not (Proc40 V1 U1 T1 S1 J O1))
                      (not (Proc33 V1 U1 T1 S1 J N1))
                      (not (Proc37 V1 U1 T1 S1 J M1))
                      (not (Proc44 V1 U1 T1 S1 J L1))
                      (not (Proc42 V1 U1 T1 S1 J K1))
                      (not (Proc32 V1 U1 T1 S1 J J1))
                      (not (Proc38 V1 U1 T1 S1 J I1))
                      (not (Proc39 V1 U1 T1 S1 J E1))
                      (not (Proc36 V1 U1 T1 S1 J D1))
                      a!8))))
    (=> a!9 (Proc30 V1 U1 T1 S1 J R Q P O))))))))
(assert (forall ((A Int) (B Int) (C Int) (D Int) (E Int) (J Bool))
  (let ((a!1 (not (or (not J) (not (= E 0))))))
    (=> a!1 (Proc47 D C B A J E)))))
(assert (forall ((A Int) (B Int) (C Int) (D Int) (E Int) (F Int) (J Bool))
  (=> J (Proc48 F E D C J B A))))
(assert (forall ((A Int) (B Int) (C Int) (D Int) (J Bool)) (=> J (Proc54 D C B A J))))
(assert (forall ((A Int) (B Int) (C Int) (D Int) (E Int) (J Bool))
  (let ((a!1 (not (or (not J) (not (= E 2))))))
    (=> a!1 (Proc51 D C B A J E)))))
(assert (forall ((A Int) (B Int) (C Int) (D Int) (E Int) (J Bool))
  (let ((a!1 (not (or (not J) (not (= E 0))))))
    (=> a!1 (Proc52 D C B A J E)))))
(assert (forall ((A Int)
         (B Int)
         (C Int)
         (D Int)
         (E Int)
         (F Int)
         (G Int)
         (H Int)
         (I Int)
         (J Bool)
         (K Int)
         (L Int)
         (M Int)
         (N Int)
         (O Int)
         (P Int)
         (Q Int)
         (R Int)
         (S Int)
         (T Int)
         (U Int)
         (V Int)
         (W Int)
         (X Int)
         (Y Int)
         (Z Int)
         (A1 Int)
         (B1 Int)
         (C1 Int)
         (D1 Int)
         (E1 Int)
         (I1 Int)
         (J1 Int)
         (K1 Int)
         (L1 Int)
         (M1 Int)
         (N1 Int)
         (O1 Int)
         (P1 Int)
         (Q1 Int)
         (R1 Int)
         (S1 Int)
         (T1 Int)
         (U1 Int)
         (V1 Int)
         (W1 Int)
         (X1 Int)
         (Y1 Int)
         (Z1 Int)
         (A2 Int)
         (B2 Int)
         (C2 Int)
         (D2 Int)
         (E2 Int)
         (F2 Int)
         (G2 Int)
         (H2 Int)
         (I2 Int))
  (let ((a!1 (and (= I2 H2) (not (<= G2 (+ 16 I2)))))
        (a!2 (and (not (<= G2 H2))
                  (= F2 G2)
                  (not (<= E2 (+ 4 F2)))
                  (not (<= E2 G2))))
        (a!3 (and (= D2 E2)
                  (not (<= C2 (+ 332 D2)))
                  (not (<= C2 E2))
                  (= B2 C2)
                  (not (<= A2 (+ 4 B2)))
                  (not (<= A2 C2))
                  (= Z1 A2)
                  (not (<= Y1 (+ 536 Z1)))))
        (a!4 (and (not (<= Y1 A2))
                  (= X1 Y1)
                  (not (<= W1 (+ 240 X1)))
                  (not (<= W1 Y1))
                  (= V1 W1)
                  (not (<= U1 (+ 240 V1)))
                  (not (<= U1 W1))
                  (= T1 U1)
                  (not (<= S1 (+ 536 T1)))
                  (not (<= S1 U1))
                  (= R1 S1)
                  (not (<= Q1 (+ 240 R1)))
                  (not (<= Q1 S1))
                  (= P1 Q1)
                  (not (<= O1 (+ 4 P1)))
                  (not (<= O1 Q1))
                  (= N1 O1)
                  (not (<= M1 (+ 536 N1)))
                  (not (<= M1 O1))
                  (= L1 M1)
                  (not (<= K1 (+ 332 L1)))
                  (not (<= K1 M1))
                  (= J1 K1)
                  (not (<= I1 (+ 240 J1)))
                  (not (<= I1 K1))
                  (= E1 I1)
                  (not (<= D1 (+ 240 E1)))
                  (not (<= D1 I1))
                  (= C1 D1)
                  (not (<= B1 (+ 332 C1)))
                  (not (<= B1 D1))
                  (= A1 B1)
                  (not (<= Z (+ 4 A1)))
                  (not (<= Z B1))
                  (= Y Z)
                  (not (<= X (+ 536 Y)))
                  (not (<= X Z))
                  (= W X)
                  (not (<= V (+ 240 W)))
                  (not (<= V X))
                  (= U V)
                  (not (<= T (+ 240 U)))
                  (not (<= T V))
                  (= S T)
                  (not (<= R (+ 240 S)))
                  (not (<= R T))
                  (= Q R)
                  (not (<= P (+ 240 Q)))
                  (not (<= P R))
                  (= O P)
                  (not (<= N (+ 240 O)))
                  (not (<= N P))
                  (= M N)
                  (not (<= L (+ 40 M)))
                  (not (<= L N))
                  (= K L)
                  (not (<= I (+ 332 K)))
                  (not (<= I L))
                  (= H I)
                  (not (<= G (+ 4 H)))
                  (not (<= G I))
                  (= F G)
                  (not (<= E (+ 40 F)))
                  (not (<= E G)))))
  (let ((a!5 (not (or (not J)
                      (not a!1)
                      (not a!2)
                      (not a!3)
                      (not a!4)
                      (not (= D E))))))
    (=> a!5 (Proc29 H2 C B A J D))))))
(assert (forall ((A Int)
         (B Int)
         (C Int)
         (D Int)
         (E Int)
         (F Int)
         (G Int)
         (H Int)
         (I Int)
         (J Bool)
         (K Int)
         (L Int)
         (M Int)
         (N Int)
         (O Int)
         (F1 Bool)
         (G1 Bool))
  (let ((a!1 (or (not G1)
                 (not (and (Proc31 O N M L true K I H G F1 F) (not F1))))))
    (=> (not a!1) (Proc55 O N M L G1 E J D C B A)))))
(assert (let ((a!1 (exists ((V0 Int)
                    (V1 Int)
                    (V2 Int)
                    (V3 Int)
                    (V4 Bool)
                    (V5 Int)
                    (V6 Bool)
                    (V7 Int)
                    (V8 Int)
                    (V9 Int)
                    (V10 Int))
             (not (=> (and (Proc55 V0 V1 V2 V3 V4 V5 V6 V7 V8 V9 V10)
                           (not false))
                      false)))))
  (not a!1)))

(check-sat)
